(set-info :smt-lib-version 2.6)
(set-logic QF_NIA)
(set-info :source |
Generated by: Cristina Borralleras, Daniel Larraz, Albert Oliveras, Enric Rodriguez-Carbonell, Albert Rubio
Generated on: 2017-04-27
Generator: VeryMax
Application: Termination proving
Target solver: barcelogic
|)
(set-info :license "https://creativecommons.org/licenses/by/4.0/")
(set-info :category "industrial")
(set-info :status sat)
(declare-fun Nl2arg11 () Int)
(declare-fun Nl2arg21 () Int)
(declare-fun Nl2arg31 () Int)
(declare-fun Nl2arg12 () Int)
(declare-fun Nl2arg22 () Int)
(declare-fun Nl2arg32 () Int)
(declare-fun Nl2arg13 () Int)
(declare-fun Nl2arg23 () Int)
(declare-fun Nl2arg33 () Int)
(declare-fun lam0n0 () Int)
(declare-fun lam0n2 () Int)
(declare-fun lam0n3 () Int)
(declare-fun lam0n4 () Int)
(declare-fun Nl2CT1 () Int)
(declare-fun Nl2CT2 () Int)
(declare-fun Nl2CT3 () Int)
(declare-fun lam0n1 () Int)
(declare-fun lam1n0 () Int)
(declare-fun lam1n2 () Int)
(declare-fun lam1n3 () Int)
(declare-fun lam1n4 () Int)
(declare-fun lam1n1 () Int)
(declare-fun lam2n0 () Int)
(declare-fun lam2n2 () Int)
(declare-fun lam2n3 () Int)
(declare-fun lam2n4 () Int)
(declare-fun lam2n1 () Int)
(declare-fun lam3n0 () Int)
(declare-fun lam3n2 () Int)
(declare-fun lam3n3 () Int)
(declare-fun lam3n4 () Int)
(declare-fun lam3n1 () Int)
(declare-fun lam4n0 () Int)
(declare-fun lam4n1 () Int)
(declare-fun lam5n0 () Int)
(declare-fun lam5n1 () Int)
(declare-fun lam6n0 () Int)
(declare-fun lam6n1 () Int)
(declare-fun lam7n0 () Int)
(declare-fun lam7n1 () Int)
(declare-fun lam7n2 () Int)
(declare-fun lam8n0 () Int)
(declare-fun lam8n1 () Int)
(declare-fun lam8n2 () Int)
(declare-fun lam9n0 () Int)
(declare-fun lam9n1 () Int)
(declare-fun lam9n2 () Int)
(declare-fun lam10n0 () Int)
(declare-fun lam10n1 () Int)
(declare-fun lam10n2 () Int)
(declare-fun lam10n3 () Int)
(declare-fun lam11n0 () Int)
(declare-fun lam11n1 () Int)
(declare-fun lam11n2 () Int)
(declare-fun lam11n3 () Int)
(declare-fun lam12n0 () Int)
(declare-fun lam12n1 () Int)
(declare-fun lam12n2 () Int)
(declare-fun lam12n3 () Int)
(declare-fun undef16 () Int)
(declare-fun undef17 () Int)
(declare-fun undef7 () Int)
(declare-fun undef11 () Int)
(declare-fun undef12 () Int)
(declare-fun lam16n0 () Int)
(declare-fun lam16n2 () Int)
(declare-fun lam16n3 () Int)
(declare-fun lam16n4 () Int)
(declare-fun RFN1_CT () Int)
(declare-fun RFN1_arg1 () Int)
(declare-fun RFN1_arg2 () Int)
(declare-fun RFN1_arg3 () Int)
(declare-fun lam16n1 () Int)
(declare-fun lam14n0 () Int)
(declare-fun lam14n2 () Int)
(declare-fun lam14n3 () Int)
(declare-fun lam14n4 () Int)
(declare-fun lam14n1 () Int)
(declare-fun lam15n0 () Int)
(declare-fun lam15n2 () Int)
(declare-fun lam15n3 () Int)
(declare-fun lam15n4 () Int)
(declare-fun lam15n1 () Int)
(declare-fun lam13n0 () Int)
(declare-fun lam13n2 () Int)
(declare-fun lam13n3 () Int)
(declare-fun lam13n4 () Int)
(declare-fun lam13n1 () Int)
(assert ( and ( <= ( - 1 ) Nl2arg11 ) ( <= Nl2arg11 1 ) ( <= ( - 1 ) Nl2arg21 ) ( <= Nl2arg21 1 ) ( <= ( - 1 ) Nl2arg31 ) ( <= Nl2arg31 1 ) ( <= ( - 1 ) Nl2arg12 ) ( <= Nl2arg12 1 ) ( <= ( - 1 ) Nl2arg22 ) ( <= Nl2arg22 1 ) ( <= ( - 1 ) Nl2arg32 ) ( <= Nl2arg32 1 ) ( <= ( - 1 ) Nl2arg13 ) ( <= Nl2arg13 1 ) ( <= ( - 1 ) Nl2arg23 ) ( <= Nl2arg23 1 ) ( <= ( - 1 ) Nl2arg33 ) ( <= Nl2arg33 1 ) ))
(assert ( or ( and ( >= lam0n0 0 ) ( >= lam0n2 0 ) ( >= lam0n3 0 ) ( >= lam0n4 0 ) ( > ( + ( * 1 lam0n0 ) ( * Nl2CT1 lam0n2 ) ( * Nl2CT2 lam0n3 ) ( * Nl2CT3 lam0n4 ) ( - 1 ) ) 0 ) ( = ( + ( * 1 lam0n0 ) ( * 1 lam0n1 ) ( * Nl2arg11 lam0n2 ) ( * Nl2arg12 lam0n3 ) ( * Nl2arg13 lam0n4 ) ) 0 ) ( = ( + ( * ( - 1 ) lam0n0 ) ( * Nl2arg21 lam0n2 ) ( * Nl2arg22 lam0n3 ) ( * Nl2arg23 lam0n4 ) ) 0 ) ( = ( + ( * ( - 1 ) lam0n1 ) ( * Nl2arg31 lam0n2 ) ( * Nl2arg32 lam0n3 ) ( * Nl2arg33 lam0n4 ) ) 0 ) ) ( and ( >= lam1n0 0 ) ( >= lam1n2 0 ) ( >= lam1n3 0 ) ( >= lam1n4 0 ) ( > ( + ( * 1 lam1n0 ) ( * Nl2CT1 lam1n2 ) ( * Nl2CT2 lam1n3 ) ( * Nl2CT3 lam1n4 ) ( - 1 ( + ( + ( + Nl2CT1 ( * Nl2arg11 0 ) ) ( * Nl2arg21 1 ) ) ( * Nl2arg31 0 ) ) ) ) 0 ) ( = ( + ( * 1 lam1n0 ) ( * 1 lam1n1 ) ( * Nl2arg11 lam1n2 ) ( * Nl2arg12 lam1n3 ) ( * Nl2arg13 lam1n4 ) ( - ( + ( + 0 ( * Nl2arg11 1 ) ) ( * Nl2arg31 1 ) ) ) ) 0 ) ( = ( + ( * ( - 1 ) lam1n0 ) ( * Nl2arg21 lam1n2 ) ( * Nl2arg22 lam1n3 ) ( * Nl2arg23 lam1n4 ) ( - ( + ( + ( + 0 ( * Nl2arg11 1 ) ) ( * Nl2arg21 1 ) ) ( * Nl2arg31 1 ) ) ) ) 0 ) ( = ( + ( * ( - 1 ) lam1n1 ) ( * Nl2arg31 lam1n2 ) ( * Nl2arg32 lam1n3 ) ( * Nl2arg33 lam1n4 ) ) 0 ) ) ))
(assert ( or ( and ( >= lam0n0 0 ) ( >= lam0n2 0 ) ( >= lam0n3 0 ) ( >= lam0n4 0 ) ( > ( + ( * 1 lam0n0 ) ( * Nl2CT1 lam0n2 ) ( * Nl2CT2 lam0n3 ) ( * Nl2CT3 lam0n4 ) ( - 1 ) ) 0 ) ( = ( + ( * 1 lam0n0 ) ( * 1 lam0n1 ) ( * Nl2arg11 lam0n2 ) ( * Nl2arg12 lam0n3 ) ( * Nl2arg13 lam0n4 ) ) 0 ) ( = ( + ( * ( - 1 ) lam0n0 ) ( * Nl2arg21 lam0n2 ) ( * Nl2arg22 lam0n3 ) ( * Nl2arg23 lam0n4 ) ) 0 ) ( = ( + ( * ( - 1 ) lam0n1 ) ( * Nl2arg31 lam0n2 ) ( * Nl2arg32 lam0n3 ) ( * Nl2arg33 lam0n4 ) ) 0 ) ) ( and ( >= lam2n0 0 ) ( >= lam2n2 0 ) ( >= lam2n3 0 ) ( >= lam2n4 0 ) ( > ( + ( * 1 lam2n0 ) ( * Nl2CT1 lam2n2 ) ( * Nl2CT2 lam2n3 ) ( * Nl2CT3 lam2n4 ) ( - 1 ( + ( + ( + Nl2CT2 ( * Nl2arg12 0 ) ) ( * Nl2arg22 1 ) ) ( * Nl2arg32 0 ) ) ) ) 0 ) ( = ( + ( * 1 lam2n0 ) ( * 1 lam2n1 ) ( * Nl2arg11 lam2n2 ) ( * Nl2arg12 lam2n3 ) ( * Nl2arg13 lam2n4 ) ( - ( + ( + 0 ( * Nl2arg12 1 ) ) ( * Nl2arg32 1 ) ) ) ) 0 ) ( = ( + ( * ( - 1 ) lam2n0 ) ( * Nl2arg21 lam2n2 ) ( * Nl2arg22 lam2n3 ) ( * Nl2arg23 lam2n4 ) ( - ( + ( + ( + 0 ( * Nl2arg12 1 ) ) ( * Nl2arg22 1 ) ) ( * Nl2arg32 1 ) ) ) ) 0 ) ( = ( + ( * ( - 1 ) lam2n1 ) ( * Nl2arg31 lam2n2 ) ( * Nl2arg32 lam2n3 ) ( * Nl2arg33 lam2n4 ) ) 0 ) ) ))
(assert ( or ( and ( >= lam0n0 0 ) ( >= lam0n2 0 ) ( >= lam0n3 0 ) ( >= lam0n4 0 ) ( > ( + ( * 1 lam0n0 ) ( * Nl2CT1 lam0n2 ) ( * Nl2CT2 lam0n3 ) ( * Nl2CT3 lam0n4 ) ( - 1 ) ) 0 ) ( = ( + ( * 1 lam0n0 ) ( * 1 lam0n1 ) ( * Nl2arg11 lam0n2 ) ( * Nl2arg12 lam0n3 ) ( * Nl2arg13 lam0n4 ) ) 0 ) ( = ( + ( * ( - 1 ) lam0n0 ) ( * Nl2arg21 lam0n2 ) ( * Nl2arg22 lam0n3 ) ( * Nl2arg23 lam0n4 ) ) 0 ) ( = ( + ( * ( - 1 ) lam0n1 ) ( * Nl2arg31 lam0n2 ) ( * Nl2arg32 lam0n3 ) ( * Nl2arg33 lam0n4 ) ) 0 ) ) ( and ( >= lam3n0 0 ) ( >= lam3n2 0 ) ( >= lam3n3 0 ) ( >= lam3n4 0 ) ( > ( + ( * 1 lam3n0 ) ( * Nl2CT1 lam3n2 ) ( * Nl2CT2 lam3n3 ) ( * Nl2CT3 lam3n4 ) ( - 1 ( + ( + ( + Nl2CT3 ( * Nl2arg13 0 ) ) ( * Nl2arg23 1 ) ) ( * Nl2arg33 0 ) ) ) ) 0 ) ( = ( + ( * 1 lam3n0 ) ( * 1 lam3n1 ) ( * Nl2arg11 lam3n2 ) ( * Nl2arg12 lam3n3 ) ( * Nl2arg13 lam3n4 ) ( - ( + ( + 0 ( * Nl2arg13 1 ) ) ( * Nl2arg33 1 ) ) ) ) 0 ) ( = ( + ( * ( - 1 ) lam3n0 ) ( * Nl2arg21 lam3n2 ) ( * Nl2arg22 lam3n3 ) ( * Nl2arg23 lam3n4 ) ( - ( + ( + ( + 0 ( * Nl2arg13 1 ) ) ( * Nl2arg23 1 ) ) ( * Nl2arg33 1 ) ) ) ) 0 ) ( = ( + ( * ( - 1 ) lam3n1 ) ( * Nl2arg31 lam3n2 ) ( * Nl2arg32 lam3n3 ) ( * Nl2arg33 lam3n4 ) ) 0 ) ) ))
(assert ( or ( and ( <= ( + 1 ( * ( - 1 ) undef16 ) ) 0 ) ( = undef17 0 ) ( <= ( + ( + ( + Nl2CT1 ( * Nl2arg11 0 ) ) ( * Nl2arg21 0 ) ) ( * Nl2arg31 0 ) ) 0 ) ( <= ( + ( + ( + Nl2CT2 ( * Nl2arg12 0 ) ) ( * Nl2arg22 0 ) ) ( * Nl2arg32 0 ) ) 0 ) ( <= ( + ( + ( + Nl2CT3 ( * Nl2arg13 0 ) ) ( * Nl2arg23 0 ) ) ( * Nl2arg33 0 ) ) 0 ) ) ( and ( <= ( * ( - 1 ) undef7 ) 0 ) ( <= ( + 1 ( * ( - 1 ) undef16 ) ) 0 ) ( = ( + ( - 1 ) undef17 ) 0 ) ( <= ( + ( + ( + ( + Nl2CT1 ( * Nl2arg11 0 ) ) ( * Nl2arg21 0 ) ) ( * Nl2arg31 0 ) ) ( * ( + 0 ( * Nl2arg21 ( - 1 ) ) ) undef7 ) ) 0 ) ( <= ( + ( + ( + ( + Nl2CT2 ( * Nl2arg12 0 ) ) ( * Nl2arg22 0 ) ) ( * Nl2arg32 0 ) ) ( * ( + 0 ( * Nl2arg22 ( - 1 ) ) ) undef7 ) ) 0 ) ( <= ( + ( + ( + ( + Nl2CT3 ( * Nl2arg13 0 ) ) ( * Nl2arg23 0 ) ) ( * Nl2arg33 0 ) ) ( * ( + 0 ( * Nl2arg23 ( - 1 ) ) ) undef7 ) ) 0 ) ) ( and ( <= ( * ( - 1 ) undef11 ) 0 ) ( <= ( * ( - 1 ) undef12 ) 0 ) ( <= ( + 1 ( * ( - 1 ) undef16 ) ) 0 ) ( <= ( + 2 ( * ( - 1 ) undef17 ) ) 0 ) ( <= ( + ( + ( + ( + Nl2CT1 ( * Nl2arg11 0 ) ) ( * Nl2arg21 0 ) ) ( * Nl2arg31 0 ) ) ( * ( + 0 ( * Nl2arg21 ( - 1 ) ) ) undef11 ) ( * ( + ( + 0 ( * Nl2arg11 ( - 1 ) ) ) ( * Nl2arg31 ( - 1 ) ) ) undef12 ) ) 0 ) ( <= ( + ( + ( + ( + Nl2CT2 ( * Nl2arg12 0 ) ) ( * Nl2arg22 0 ) ) ( * Nl2arg32 0 ) ) ( * ( + 0 ( * Nl2arg22 ( - 1 ) ) ) undef11 ) ( * ( + ( + 0 ( * Nl2arg12 ( - 1 ) ) ) ( * Nl2arg32 ( - 1 ) ) ) undef12 ) ) 0 ) ( <= ( + ( + ( + ( + Nl2CT3 ( * Nl2arg13 0 ) ) ( * Nl2arg23 0 ) ) ( * Nl2arg33 0 ) ) ( * ( + 0 ( * Nl2arg23 ( - 1 ) ) ) undef11 ) ( * ( + ( + 0 ( * Nl2arg13 ( - 1 ) ) ) ( * Nl2arg33 ( - 1 ) ) ) undef12 ) ) 0 ) ) ))
(assert ( or ( and ( and ( >= lam16n0 0 ) ( >= lam16n2 0 ) ( >= lam16n3 0 ) ( >= lam16n4 0 ) ( > ( + ( * 1 lam16n0 ) ( * Nl2CT1 lam16n2 ) ( * Nl2CT2 lam16n3 ) ( * Nl2CT3 lam16n4 ) ( - 1 ( - ( + ( + ( + RFN1_CT ( * RFN1_arg1 0 ) ) ( * RFN1_arg2 1 ) ) ( * RFN1_arg3 0 ) ) RFN1_CT ) ) ) 0 ) ( = ( + ( * 1 lam16n0 ) ( * 1 lam16n1 ) ( * Nl2arg11 lam16n2 ) ( * Nl2arg12 lam16n3 ) ( * Nl2arg13 lam16n4 ) ( - ( - ( + ( + 0 ( * RFN1_arg1 1 ) ) ( * RFN1_arg3 1 ) ) RFN1_arg1 ) ) ) 0 ) ( = ( + ( * ( - 1 ) lam16n0 ) ( * Nl2arg21 lam16n2 ) ( * Nl2arg22 lam16n3 ) ( * Nl2arg23 lam16n4 ) ( - ( - ( + ( + ( + 0 ( * RFN1_arg1 1 ) ) ( * RFN1_arg2 1 ) ) ( * RFN1_arg3 1 ) ) RFN1_arg2 ) ) ) 0 ) ( = ( + ( * ( - 1 ) lam16n1 ) ( * Nl2arg31 lam16n2 ) ( * Nl2arg32 lam16n3 ) ( * Nl2arg33 lam16n4 ) ( - ( - RFN1_arg3 ) ) ) 0 ) ) ( and ( and ( >= lam14n0 0 ) ( >= lam14n2 0 ) ( >= lam14n3 0 ) ( >= lam14n4 0 ) ( > ( + ( * 1 lam14n0 ) ( * Nl2CT1 lam14n2 ) ( * Nl2CT2 lam14n3 ) ( * Nl2CT3 lam14n4 ) ( - 1 ( - RFN1_CT ) ) ) 0 ) ( = ( + ( * 1 lam14n0 ) ( * 1 lam14n1 ) ( * Nl2arg11 lam14n2 ) ( * Nl2arg12 lam14n3 ) ( * Nl2arg13 lam14n4 ) ( - ( - RFN1_arg1 ) ) ) 0 ) ( = ( + ( * ( - 1 ) lam14n0 ) ( * Nl2arg21 lam14n2 ) ( * Nl2arg22 lam14n3 ) ( * Nl2arg23 lam14n4 ) ( - ( - RFN1_arg2 ) ) ) 0 ) ( = ( + ( * ( - 1 ) lam14n1 ) ( * Nl2arg31 lam14n2 ) ( * Nl2arg32 lam14n3 ) ( * Nl2arg33 lam14n4 ) ( - ( - RFN1_arg3 ) ) ) 0 ) ) ( and ( >= lam15n0 0 ) ( >= lam15n2 0 ) ( >= lam15n3 0 ) ( >= lam15n4 0 ) ( > ( + ( * 1 lam15n0 ) ( * Nl2CT1 lam15n2 ) ( * Nl2CT2 lam15n3 ) ( * Nl2CT3 lam15n4 ) ( - 1 ( + ( - ( + ( + ( + RFN1_CT ( * RFN1_arg1 0 ) ) ( * RFN1_arg2 1 ) ) ( * RFN1_arg3 0 ) ) RFN1_CT ) 1 ) ) ) 0 ) ( = ( + ( * 1 lam15n0 ) ( * 1 lam15n1 ) ( * Nl2arg11 lam15n2 ) ( * Nl2arg12 lam15n3 ) ( * Nl2arg13 lam15n4 ) ( - ( - ( + ( + 0 ( * RFN1_arg1 1 ) ) ( * RFN1_arg3 1 ) ) RFN1_arg1 ) ) ) 0 ) ( = ( + ( * ( - 1 ) lam15n0 ) ( * Nl2arg21 lam15n2 ) ( * Nl2arg22 lam15n3 ) ( * Nl2arg23 lam15n4 ) ( - ( - ( + ( + ( + 0 ( * RFN1_arg1 1 ) ) ( * RFN1_arg2 1 ) ) ( * RFN1_arg3 1 ) ) RFN1_arg2 ) ) ) 0 ) ( = ( + ( * ( - 1 ) lam15n1 ) ( * Nl2arg31 lam15n2 ) ( * Nl2arg32 lam15n3 ) ( * Nl2arg33 lam15n4 ) ( - ( - RFN1_arg3 ) ) ) 0 ) ) ) ) ( and ( >= lam13n0 0 ) ( >= lam13n2 0 ) ( >= lam13n3 0 ) ( >= lam13n4 0 ) ( > ( + ( * 1 lam13n0 ) ( * Nl2CT1 lam13n2 ) ( * Nl2CT2 lam13n3 ) ( * Nl2CT3 lam13n4 ) ( - 1 ) ) 0 ) ( = ( + ( * 1 lam13n0 ) ( * 1 lam13n1 ) ( * Nl2arg11 lam13n2 ) ( * Nl2arg12 lam13n3 ) ( * Nl2arg13 lam13n4 ) ) 0 ) ( = ( + ( * ( - 1 ) lam13n0 ) ( * Nl2arg21 lam13n2 ) ( * Nl2arg22 lam13n3 ) ( * Nl2arg23 lam13n4 ) ) 0 ) ( = ( + ( * ( - 1 ) lam13n1 ) ( * Nl2arg31 lam13n2 ) ( * Nl2arg32 lam13n3 ) ( * Nl2arg33 lam13n4 ) ) 0 ) ) ))
(check-sat)
(exit)
